#== Basis set ==#
 ecut 5.0

#== SCF procedure ==#
 tolvrs 1e-10

#== Unit cell ==#
 acell    1.0    1.0    1.0
 natom 2
 ntypat 2
 rprim
    0.000000000000    5.341783325138    5.341783325138
    5.341783325138    0.000000000000    5.341783325138
    5.341783325138    5.341783325138    0.000000000000
 typat 1 2
 xred
    0.0000000000    0.0000000000    0.0000000000
    0.2500000000    0.2500000000    0.2500000000
 znucl 31 33

#== Other ==#
 prtden 1

